networks/zoo_66_847/zoo_66_847-lower.txt
Number of groups: 32
Flow 1: {1 2 0} {2 35 0} 
Flow 2: {1 4 0} {4 3 0} {3 36 0} 
Flow 3: {4 37 0} 
Flow 4: {2 7 0} {7 6 0} {6 39 0} 
Flow 5: {7 40 0} 
Flow 6: {7 8 0} {8 41 0} 
Flow 7: {7 9 0} {9 42 0} 
Flow 8: {9 10 0} {10 43 0} 
Flow 9: {7 14 0} {14 11 0} {11 44 0} 
Flow 10: {11 12 0} {12 45 0} 
Flow 11: {9 13 0} {13 46 0} 
Flow 12: {14 47 0} 
Flow 13: {10 19 0} {19 15 0} {15 48 0} 
Flow 14: {19 18 0} {18 17 0} {17 16 0} {16 49 0} 
Flow 15: {17 50 0} 
Flow 16: {18 51 0} 
Flow 17: {19 52 0} 
Flow 18: {14 20 0} {20 53 0} 
Flow 19: {20 21 0} {21 22 0} {22 55 0} 
Flow 20: {22 23 0} {23 56 0} 
Flow 21: {3 25 0} {25 24 0} {24 57 0} 
Flow 22: {25 58 0} 
Flow 23: {20 26 0} {26 59 0} 
Flow 24: {26 27 0} {27 60 0} 
Flow 25: {27 28 0} {28 61 0} 
Flow 26: {28 29 0} {29 62 0} 
Flow 27: {24 33 0} {33 31 0} {31 30 0} {30 63 0} 
Flow 28: {31 64 0} 
Flow 29: {33 32 0} {32 65 0} 
Flow 30: {2 1 0} {1 34 0} 
Flow 33: {6 5 0} {5 38 0} 
Flow 57: {12 33 0} Flow 60: {33 66 0} 
Flow 61: {3 4 0} {4 1 0} Flow 72: {32 28 0} {28 27 0} {27 26 0} Flow 75: {30 29 0} Flow 92: {5 6 0} {6 7 0} {7 2 0} Flow 98: {5 8 0} Flow 113: {33 24 0} Flow 167: {8 7 0} Flow 169: {8 5 0} Flow 186: {9 7 0} Flow 205: {15 22 0} Flow 216: {10 9 0} Flow 217: {11 14 0} {14 7 0} Flow 235: {12 11 0} Flow 237: {24 25 0} {25 3 0} Flow 248: {22 15 0} Flow 249: {23 16 0} Flow 266: {13 9 0} Flow 296: {15 19 0} {19 10 0} Flow 306: {22 21 0} {21 20 0} {20 14 0} Flow 323: {29 30 0} Flow 325: {28 32 0} Flow 327: {16 17 0} {17 18 0} {18 19 0} Flow 337: {16 23 0} {23 22 0} Flow 545: {33 12 0} Flow 602: {26 20 0} Flow 624: {32 33 0} Flow 630: {30 31 0} Flow 695: {29 28 0} Flow 725: {31 33 0} Time taken running everything: 0 seconds
