networks/zoo_66_847/zoo_66_847-lower.sol
<?xml version = "1.0" encoding="UTF-8" standalone="yes"?>
<CPLEXSolution version="1.2">
 <header
   problemName="networks/zoo_66_847/zoo_66_847-lower.lp"
   solutionName="incumbent"
   solutionIndex="-1"
   objectiveValue="32"
   solutionTypeValue="3"
   solutionTypeString="primal"
   solutionStatusValue="101"
   solutionStatusString="integer optimal solution"
   solutionMethodString="mip"
   primalFeasible="1"
   dualFeasible="1"
   MIPNodes="0"
   MIPIterations="0"
   writeLevel="3"/>
 <quality
   epInt="1.0000000000000001e-05"
   epRHS="9.9999999999999995e-07"
   maxIntInfeas="0"
   maxPrimalInfeas="0"
   maxX="1"
   maxSlack="1"/>
 <variables>
  <variable name="Y(1,2)" index="1" value="1"/>
  <variable name="Y(2,3)" index="67" value="1"/>
  <variable name="Y(3,4)" index="133" value="1"/>
  <variable name="Y(4,6)" index="200" value="1"/>
  <variable name="Y(5,7)" index="266" value="1"/>
  <variable name="Y(6,8)" index="332" value="1"/>
  <variable name="Y(7,9)" index="398" value="1"/>
  <variable name="Y(8,10)" index="464" value="1"/>
  <variable name="Y(9,11)" index="530" value="1"/>
  <variable name="Y(10,12)" index="596" value="1"/>
  <variable name="Y(11,13)" index="662" value="1"/>
  <variable name="Y(12,14)" index="728" value="1"/>
  <variable name="Y(13,15)" index="794" value="1"/>
  <variable name="Y(14,16)" index="860" value="1"/>
  <variable name="Y(15,17)" index="926" value="1"/>
  <variable name="Y(16,18)" index="992" value="1"/>
  <variable name="Y(17,19)" index="1058" value="1"/>
  <variable name="Y(18,20)" index="1124" value="1"/>
  <variable name="Y(19,22)" index="1191" value="1"/>
  <variable name="Y(20,23)" index="1257" value="1"/>
  <variable name="Y(21,24)" index="1323" value="1"/>
  <variable name="Y(22,25)" index="1389" value="1"/>
  <variable name="Y(23,26)" index="1455" value="1"/>
  <variable name="Y(24,27)" index="1521" value="1"/>
  <variable name="Y(25,28)" index="1587" value="1"/>
  <variable name="Y(26,29)" index="1653" value="1"/>
  <variable name="Y(27,30)" index="1719" value="1"/>
  <variable name="Y(28,31)" index="1785" value="1"/>
  <variable name="Y(29,32)" index="1851" value="1"/>
  <variable name="Y(30,1)" index="1885" value="1"/>
  <variable name="Y(33,5)" index="2084" value="1"/>
  <variable name="Y(60,33)" index="3867" value="1"/>
  <variable name="X(1,2,1)" index="55055" value="1"/>
  <variable name="X(1,4,2)" index="55903" value="1"/>
  <variable name="X(1,34,30)" index="56778" value="1"/>
  <variable name="X(2,1,30)" index="57625" value="1"/>
  <variable name="X(2,7,4)" index="58446" value="1"/>
  <variable name="X(2,35,1)" index="59290" value="1"/>
  <variable name="X(3,4,61)" index="60197" value="1"/>
  <variable name="X(3,25,21)" index="61004" value="1"/>
  <variable name="X(3,36,2)" index="61832" value="1"/>
  <variable name="X(4,1,61)" index="62738" value="1"/>
  <variable name="X(4,3,2)" index="63526" value="1"/>
  <variable name="X(4,37,3)" index="64374" value="1"/>
  <variable name="X(5,6,92)" index="65310" value="1"/>
  <variable name="X(5,8,98)" index="66163" value="1"/>
  <variable name="X(5,38,33)" index="66945" value="1"/>
  <variable name="X(6,5,33)" index="67792" value="1"/>
  <variable name="X(6,7,92)" index="68698" value="1"/>
  <variable name="X(6,39,4)" index="69457" value="1"/>
  <variable name="X(7,2,92)" index="70392" value="1"/>
  <variable name="X(7,6,4)" index="71151" value="1"/>
  <variable name="X(7,8,6)" index="72000" value="1"/>
  <variable name="X(7,9,7)" index="72848" value="1"/>
  <variable name="X(7,14,9)" index="73697" value="1"/>
  <variable name="X(7,40,5)" index="74540" value="1"/>
  <variable name="X(8,5,169)" index="75551" value="1"/>
  <variable name="X(8,7,167)" index="76396" value="1"/>
  <variable name="X(8,41,6)" index="77082" value="1"/>
  <variable name="X(9,7,186)" index="78109" value="1"/>
  <variable name="X(9,10,8)" index="78778" value="1"/>
  <variable name="X(9,13,11)" index="79628" value="1"/>
  <variable name="X(9,42,7)" index="80471" value="1"/>
  <variable name="X(10,9,216)" index="81527" value="1"/>
  <variable name="X(10,19,13)" index="82171" value="1"/>
  <variable name="X(10,43,8)" index="83013" value="1"/>
  <variable name="X(11,12,10)" index="83862" value="1"/>
  <variable name="X(11,14,217)" index="84916" value="1"/>
  <variable name="X(11,44,9)" index="85555" value="1"/>
  <variable name="X(12,11,235)" index="86628" value="1"/>
  <variable name="X(12,33,57)" index="87297" value="1"/>
  <variable name="X(12,45,10)" index="88097" value="1"/>
  <variable name="X(13,9,266)" index="89200" value="1"/>
  <variable name="X(13,46,11)" index="89792" value="1"/>
  <variable name="X(14,7,217)" index="90845" value="1"/>
  <variable name="X(14,11,9)" index="91484" value="1"/>
  <variable name="X(14,20,18)" index="92340" value="1"/>
  <variable name="X(14,47,12)" index="93181" value="1"/>
  <variable name="X(15,19,296)" index="94312" value="1"/>
  <variable name="X(15,22,205)" index="95068" value="1"/>
  <variable name="X(15,48,13)" index="95723" value="1"/>
  <variable name="X(16,17,327)" index="96884" value="1"/>
  <variable name="X(16,23,337)" index="97741" value="1"/>
  <variable name="X(16,49,14)" index="98265" value="1"/>
  <variable name="X(17,16,14)" index="99112" value="1"/>
  <variable name="X(17,18,327)" index="100272" value="1"/>
  <variable name="X(17,50,15)" index="100807" value="1"/>
  <variable name="X(18,17,14)" index="101653" value="1"/>
  <variable name="X(18,19,327)" index="102813" value="1"/>
  <variable name="X(18,51,16)" index="103349" value="1"/>
  <variable name="X(19,10,296)" index="104476" value="1"/>
  <variable name="X(19,15,13)" index="105040" value="1"/>
  <variable name="X(19,18,14)" index="105888" value="1"/>
  <variable name="X(19,52,17)" index="106738" value="1"/>
  <variable name="X(20,14,306)" index="107874" value="1"/>
  <variable name="X(20,21,19)" index="108434" value="1"/>
  <variable name="X(20,26,23)" index="109285" value="1"/>
  <variable name="X(20,53,18)" index="110127" value="1"/>
  <variable name="X(21,20,306)" index="111262" value="1"/>
  <variable name="X(21,22,19)" index="111822" value="1"/>
  <variable name="X(22,15,248)" index="112898" value="1"/>
  <variable name="X(22,21,306)" index="113803" value="1"/>
  <variable name="X(22,23,20)" index="114364" value="1"/>
  <variable name="X(22,55,19)" index="115210" value="1"/>
  <variable name="X(23,16,249)" index="116287" value="1"/>
  <variable name="X(23,22,337)" index="117222" value="1"/>
  <variable name="X(23,56,20)" index="117752" value="1"/>
  <variable name="X(24,25,237)" index="118816" value="1"/>
  <variable name="X(24,33,27)" index="119453" value="1"/>
  <variable name="X(24,57,21)" index="120294" value="1"/>
  <variable name="X(25,3,237)" index="121357" value="1"/>
  <variable name="X(25,24,21)" index="121988" value="1"/>
  <variable name="X(25,58,22)" index="122836" value="1"/>
  <variable name="X(26,20,602)" index="124263" value="1"/>
  <variable name="X(26,27,24)" index="124532" value="1"/>
  <variable name="X(26,59,23)" index="125378" value="1"/>
  <variable name="X(27,26,72)" index="126274" value="1"/>
  <variable name="X(27,28,25)" index="127074" value="1"/>
  <variable name="X(27,60,24)" index="127920" value="1"/>
  <variable name="X(28,27,72)" index="128815" value="1"/>
  <variable name="X(28,29,26)" index="129616" value="1"/>
  <variable name="X(28,32,325)" index="130762" value="1"/>
  <variable name="X(28,61,25)" index="131309" value="1"/>
  <variable name="X(29,28,695)" index="132826" value="1"/>
  <variable name="X(29,30,323)" index="133301" value="1"/>
  <variable name="X(29,62,26)" index="133851" value="1"/>
  <variable name="X(30,29,75)" index="134747" value="1"/>
  <variable name="X(30,31,630)" index="136149" value="1"/>
  <variable name="X(30,63,27)" index="136393" value="1"/>
  <variable name="X(31,30,27)" index="137240" value="1"/>
  <variable name="X(31,33,725)" index="138785" value="1"/>
  <variable name="X(31,64,28)" index="138935" value="1"/>
  <variable name="X(32,28,72)" index="139826" value="1"/>
  <variable name="X(32,33,624)" index="141225" value="1"/>
  <variable name="X(32,65,29)" index="141477" value="1"/>
  <variable name="X(33,12,545)" index="142840" value="1"/>
  <variable name="X(33,24,113)" index="143255" value="1"/>
  <variable name="X(33,31,27)" index="144016" value="1"/>
  <variable name="X(33,32,29)" index="144865" value="1"/>
  <variable name="X(33,66,60)" index="145743" value="1"/>
 </variables>
</CPLEXSolution>
